p cnf 702 1941
-19 1 0
-19 -11 0
19 -1 11 0
-20 -10 0
-20 -19 0
20 10 19 0
-21 -9 0
-21 20 0
21 9 -20 0
-22 -8 0
-22 21 0
22 8 -21 0
-23 -7 0
-23 22 0
23 7 -22 0
-24 -6 0
-24 23 0
24 6 -23 0
-25 -5 0
-25 24 0
25 5 -24 0
-26 -4 0
-26 25 0
26 4 -25 0
-27 -3 0
-27 26 0
27 3 -26 0
-28 10 0
-28 19 0
28 -10 -19 0
-29 -20 0
-29 -28 0
29 20 28 0
-30 27 0
-30 29 0
30 -27 -29 0
-31 1 0
-31 -12 0
31 -1 12 0
-32 -10 0
-32 -31 0
32 10 31 0
-33 1 0
-33 27 0
33 -1 -27 0
-34 -11 0
-34 -33 0
34 11 33 0
-35 11 0
-35 33 0
35 -11 -33 0
-36 -34 0
-36 -35 0
36 34 35 0
-37 10 0
-37 31 0
37 -10 -31 0
-38 36 0
-38 -37 0
38 -36 37 0
-39 -32 0
-39 -38 0
39 32 38 0
-40 -9 0
-40 -39 0
40 9 39 0
-41 9 0
-41 39 0
41 -9 -39 0
-42 30 0
-42 -41 0
42 -30 41 0
-43 -40 0
-43 -42 0
43 40 42 0
-44 -8 0
-44 -43 0
44 8 43 0
-45 9 0
-45 -20 0
45 -9 20 0
-46 -21 0
-46 -45 0
46 21 45 0
-47 27 0
-47 46 0
47 -27 -46 0
-48 8 0
-48 43 0
48 -8 -43 0
-49 47 0
-49 -48 0
49 -47 48 0
-50 -44 0
-50 -49 0
50 44 49 0
-51 -7 0
-51 -50 0
51 7 50 0
-52 8 0
-52 -21 0
52 -8 21 0
-53 -22 0
-53 -52 0
53 22 52 0
-54 27 0
-54 53 0
54 -27 -53 0
-55 7 0
-55 50 0
55 -7 -50 0
-56 54 0
-56 -55 0
56 -54 55 0
-57 -51 0
-57 -56 0
57 51 56 0
-58 -6 0
-58 -57 0
58 6 57 0
-59 7 0
-59 -22 0
59 -7 22 0
-60 -23 0
-60 -59 0
60 23 59 0
-61 27 0
-61 60 0
61 -27 -60 0
-62 6 0
-62 57 0
62 -6 -57 0
-63 61 0
-63 -62 0
63 -61 62 0
-64 -58 0
-64 -63 0
64 58 63 0
-65 -5 0
-65 -64 0
65 5 64 0
-66 6 0
-66 -23 0
66 -6 23 0
-67 -24 0
-67 -66 0
67 24 66 0
-68 27 0
-68 67 0
68 -27 -67 0
-69 5 0
-69 64 0
69 -5 -64 0
-70 68 0
-70 -69 0
70 -68 69 0
-71 -65 0
-71 -70 0
71 65 70 0
-72 -4 0
-72 -71 0
72 4 71 0
-73 5 0
-73 -24 0
73 -5 24 0
-74 -25 0
-74 -73 0
74 25 73 0
-75 27 0
-75 74 0
75 -27 -74 0
-76 4 0
-76 71 0
76 -4 -71 0
-77 75 0
-77 -76 0
77 -75 76 0
-78 -72 0
-78 -77 0
78 72 77 0
-79 -3 0
-79 -78 0
79 3 78 0
-80 -40 0
-80 -41 0
80 40 41 0
-81 79 0
-81 80 0
81 -79 -80 0
-82 -30 0
-82 -81 0
82 30 81 0
-83 30 0
-83 81 0
83 -30 -81 0
-84 -82 0
-84 -83 0
84 82 83 0
-85 1 0
-85 -13 0
85 -1 13 0
-86 -10 0
-86 -85 0
86 10 85 0
-87 1 0
-87 79 0
87 -1 -79 0
-88 -12 0
-88 -87 0
88 12 87 0
-89 12 0
-89 87 0
89 -12 -87 0
-90 -88 0
-90 -89 0
90 88 89 0
-91 10 0
-91 85 0
91 -10 -85 0
-92 90 0
-92 -91 0
92 -90 91 0
-93 -86 0
-93 -92 0
93 86 92 0
-94 -9 0
-94 -93 0
94 9 93 0
-95 -32 0
-95 -37 0
95 32 37 0
-96 79 0
-96 95 0
96 -79 -95 0
-97 -36 0
-97 -96 0
97 36 96 0
-98 36 0
-98 96 0
98 -36 -96 0
-99 -97 0
-99 -98 0
99 97 98 0
-100 9 0
-100 93 0
100 -9 -93 0
-101 99 0
-101 -100 0
101 -99 100 0
-102 -94 0
-102 -101 0
102 94 101 0
-103 -8 0
-103 -102 0
103 8 102 0
-104 8 0
-104 102 0
104 -8 -102 0
-105 84 0
-105 -104 0
105 -84 104 0
-106 -103 0
-106 -105 0
106 103 105 0
-107 -7 0
-107 -106 0
107 7 106 0
-108 -44 0
-108 -48 0
108 44 48 0
-109 79 0
-109 108 0
109 -79 -108 0
-110 -47 0
-110 -109 0
110 47 109 0
-111 47 0
-111 109 0
111 -47 -109 0
-112 -110 0
-112 -111 0
112 110 111 0
-113 7 0
-113 106 0
113 -7 -106 0
-114 112 0
-114 -113 0
114 -112 113 0
-115 -107 0
-115 -114 0
115 107 114 0
-116 -6 0
-116 -115 0
116 6 115 0
-117 -51 0
-117 -55 0
117 51 55 0
-118 79 0
-118 117 0
118 -79 -117 0
-119 -54 0
-119 -118 0
119 54 118 0
-120 54 0
-120 118 0
120 -54 -118 0
-121 -119 0
-121 -120 0
121 119 120 0
-122 6 0
-122 115 0
122 -6 -115 0
-123 121 0
-123 -122 0
123 -121 122 0
-124 -116 0
-124 -123 0
124 116 123 0
-125 -5 0
-125 -124 0
125 5 124 0
-126 -58 0
-126 -62 0
126 58 62 0
-127 79 0
-127 126 0
127 -79 -126 0
-128 -61 0
-128 -127 0
128 61 127 0
-129 61 0
-129 127 0
129 -61 -127 0
-130 -128 0
-130 -129 0
130 128 129 0
-131 5 0
-131 124 0
131 -5 -124 0
-132 130 0
-132 -131 0
132 -130 131 0
-133 -125 0
-133 -132 0
133 125 132 0
-134 -4 0
-134 -133 0
134 4 133 0
-135 -65 0
-135 -69 0
135 65 69 0
-136 79 0
-136 135 0
136 -79 -135 0
-137 -68 0
-137 -136 0
137 68 136 0
-138 68 0
-138 136 0
138 -68 -136 0
-139 -137 0
-139 -138 0
139 137 138 0
-140 4 0
-140 133 0
140 -4 -133 0
-141 139 0
-141 -140 0
141 -139 140 0
-142 -134 0
-142 -141 0
142 134 141 0
-143 -3 0
-143 -142 0
143 3 142 0
-144 -72 0
-144 -76 0
144 72 76 0
-145 79 0
-145 144 0
145 -79 -144 0
-146 -75 0
-146 -145 0
146 75 145 0
-147 75 0
-147 145 0
147 -75 -145 0
-148 -146 0
-148 -147 0
148 146 147 0
-149 3 0
-149 142 0
149 -3 -142 0
-150 148 0
-150 -149 0
150 -148 149 0
-151 -143 0
-151 -150 0
151 143 150 0
-152 -103 0
-152 -104 0
152 103 104 0
-153 -151 0
-153 152 0
153 151 -152 0
-154 -84 0
-154 -153 0
154 84 153 0
-155 84 0
-155 153 0
155 -84 -153 0
-156 -154 0
-156 -155 0
156 154 155 0
-157 -143 0
-157 -149 0
157 143 149 0
-158 148 0
-158 -157 0
158 -148 157 0
-159 1 0
-159 -14 0
159 -1 14 0
-160 -10 0
-160 -159 0
160 10 159 0
-161 1 0
-161 -151 0
161 -1 151 0
-162 -13 0
-162 -161 0
162 13 161 0
-163 13 0
-163 161 0
163 -13 -161 0
-164 -162 0
-164 -163 0
164 162 163 0
-165 10 0
-165 159 0
165 -10 -159 0
-166 164 0
-166 -165 0
166 -164 165 0
-167 -160 0
-167 -166 0
167 160 166 0
-168 -9 0
-168 -167 0
168 9 167 0
-169 -86 0
-169 -91 0
169 86 91 0
-170 -151 0
-170 169 0
170 151 -169 0
-171 -90 0
-171 -170 0
171 90 170 0
-172 90 0
-172 170 0
172 -90 -170 0
-173 -171 0
-173 -172 0
173 171 172 0
-174 9 0
-174 167 0
174 -9 -167 0
-175 173 0
-175 -174 0
175 -173 174 0
-176 -168 0
-176 -175 0
176 168 175 0
-177 -8 0
-177 -176 0
177 8 176 0
-178 -94 0
-178 -100 0
178 94 100 0
-179 -151 0
-179 178 0
179 151 -178 0
-180 -99 0
-180 -179 0
180 99 179 0
-181 99 0
-181 179 0
181 -99 -179 0
-182 -180 0
-182 -181 0
182 180 181 0
-183 8 0
-183 176 0
183 -8 -176 0
-184 182 0
-184 -183 0
184 -182 183 0
-185 -177 0
-185 -184 0
185 177 184 0
-186 -7 0
-186 -185 0
186 7 185 0
-187 7 0
-187 185 0
187 -7 -185 0
-188 156 0
-188 -187 0
188 -156 187 0
-189 -186 0
-189 -188 0
189 186 188 0
-190 -6 0
-190 -189 0
190 6 189 0
-191 -107 0
-191 -113 0
191 107 113 0
-192 -151 0
-192 191 0
192 151 -191 0
-193 -112 0
-193 -192 0
193 112 192 0
-194 112 0
-194 192 0
194 -112 -192 0
-195 -193 0
-195 -194 0
195 193 194 0
-196 6 0
-196 189 0
196 -6 -189 0
-197 195 0
-197 -196 0
197 -195 196 0
-198 -190 0
-198 -197 0
198 190 197 0
-199 -5 0
-199 -198 0
199 5 198 0
-200 -116 0
-200 -122 0
200 116 122 0
-201 -151 0
-201 200 0
201 151 -200 0
-202 -121 0
-202 -201 0
202 121 201 0
-203 121 0
-203 201 0
203 -121 -201 0
-204 -202 0
-204 -203 0
204 202 203 0
-205 5 0
-205 198 0
205 -5 -198 0
-206 204 0
-206 -205 0
206 -204 205 0
-207 -199 0
-207 -206 0
207 199 206 0
-208 -4 0
-208 -207 0
208 4 207 0
-209 -125 0
-209 -131 0
209 125 131 0
-210 -151 0
-210 209 0
210 151 -209 0
-211 -130 0
-211 -210 0
211 130 210 0
-212 130 0
-212 210 0
212 -130 -210 0
-213 -211 0
-213 -212 0
213 211 212 0
-214 4 0
-214 207 0
214 -4 -207 0
-215 213 0
-215 -214 0
215 -213 214 0
-216 -208 0
-216 -215 0
216 208 215 0
-217 -3 0
-217 -216 0
217 3 216 0
-218 -134 0
-218 -140 0
218 134 140 0
-219 -151 0
-219 218 0
219 151 -218 0
-220 -139 0
-220 -219 0
220 139 219 0
-221 139 0
-221 219 0
221 -139 -219 0
-222 -220 0
-222 -221 0
222 220 221 0
-223 3 0
-223 216 0
223 -3 -216 0
-224 222 0
-224 -223 0
224 -222 223 0
-225 -217 0
-225 -224 0
225 217 224 0
-226 -158 0
-226 225 0
226 158 -225 0
-227 -186 0
-227 -187 0
227 186 187 0
-228 -226 0
-228 227 0
228 226 -227 0
-229 -156 0
-229 -228 0
229 156 228 0
-230 156 0
-230 228 0
230 -156 -228 0
-231 -229 0
-231 -230 0
231 229 230 0
-232 -217 0
-232 -223 0
232 217 223 0
-233 -226 0
-233 232 0
233 226 -232 0
-234 -222 0
-234 -233 0
234 222 233 0
-235 222 0
-235 233 0
235 -222 -233 0
-236 -234 0
-236 -235 0
236 234 235 0
-237 1 0
-237 -15 0
237 -1 15 0
-238 -10 0
-238 -237 0
238 10 237 0
-239 1 0
-239 -226 0
239 -1 226 0
-240 -14 0
-240 -239 0
240 14 239 0
-241 14 0
-241 239 0
241 -14 -239 0
-242 -240 0
-242 -241 0
242 240 241 0
-243 10 0
-243 237 0
243 -10 -237 0
-244 242 0
-244 -243 0
244 -242 243 0
-245 -238 0
-245 -244 0
245 238 244 0
-246 -9 0
-246 -245 0
246 9 245 0
-247 -160 0
-247 -165 0
247 160 165 0
-248 -226 0
-248 247 0
248 226 -247 0
-249 -164 0
-249 -248 0
249 164 248 0
-250 164 0
-250 248 0
250 -164 -248 0
-251 -249 0
-251 -250 0
251 249 250 0
-252 9 0
-252 245 0
252 -9 -245 0
-253 251 0
-253 -252 0
253 -251 252 0
-254 -246 0
-254 -253 0
254 246 253 0
-255 -8 0
-255 -254 0
255 8 254 0
-256 -168 0
-256 -174 0
256 168 174 0
-257 -226 0
-257 256 0
257 226 -256 0
-258 -173 0
-258 -257 0
258 173 257 0
-259 173 0
-259 257 0
259 -173 -257 0
-260 -258 0
-260 -259 0
260 258 259 0
-261 8 0
-261 254 0
261 -8 -254 0
-262 260 0
-262 -261 0
262 -260 261 0
-263 -255 0
-263 -262 0
263 255 262 0
-264 -7 0
-264 -263 0
264 7 263 0
-265 -177 0
-265 -183 0
265 177 183 0
-266 -226 0
-266 265 0
266 226 -265 0
-267 -182 0
-267 -266 0
267 182 266 0
-268 182 0
-268 266 0
268 -182 -266 0
-269 -267 0
-269 -268 0
269 267 268 0
-270 7 0
-270 263 0
270 -7 -263 0
-271 269 0
-271 -270 0
271 -269 270 0
-272 -264 0
-272 -271 0
272 264 271 0
-273 -6 0
-273 -272 0
273 6 272 0
-274 6 0
-274 272 0
274 -6 -272 0
-275 231 0
-275 -274 0
275 -231 274 0
-276 -273 0
-276 -275 0
276 273 275 0
-277 -5 0
-277 -276 0
277 5 276 0
-278 -190 0
-278 -196 0
278 190 196 0
-279 -226 0
-279 278 0
279 226 -278 0
-280 -195 0
-280 -279 0
280 195 279 0
-281 195 0
-281 279 0
281 -195 -279 0
-282 -280 0
-282 -281 0
282 280 281 0
-283 5 0
-283 276 0
283 -5 -276 0
-284 282 0
-284 -283 0
284 -282 283 0
-285 -277 0
-285 -284 0
285 277 284 0
-286 -4 0
-286 -285 0
286 4 285 0
-287 -199 0
-287 -205 0
287 199 205 0
-288 -226 0
-288 287 0
288 226 -287 0
-289 -204 0
-289 -288 0
289 204 288 0
-290 204 0
-290 288 0
290 -204 -288 0
-291 -289 0
-291 -290 0
291 289 290 0
-292 4 0
-292 285 0
292 -4 -285 0
-293 291 0
-293 -292 0
293 -291 292 0
-294 -286 0
-294 -293 0
294 286 293 0
-295 -3 0
-295 -294 0
295 3 294 0
-296 -208 0
-296 -214 0
296 208 214 0
-297 -226 0
-297 296 0
297 226 -296 0
-298 -213 0
-298 -297 0
298 213 297 0
-299 213 0
-299 297 0
299 -213 -297 0
-300 -298 0
-300 -299 0
300 298 299 0
-301 3 0
-301 294 0
301 -3 -294 0
-302 300 0
-302 -301 0
302 -300 301 0
-303 -295 0
-303 -302 0
303 295 302 0
-304 -236 0
-304 303 0
304 236 -303 0
-305 -273 0
-305 -274 0
305 273 274 0
-306 -304 0
-306 305 0
306 304 -305 0
-307 -231 0
-307 -306 0
307 231 306 0
-308 231 0
-308 306 0
308 -231 -306 0
-309 -307 0
-309 -308 0
309 307 308 0
-310 -295 0
-310 -301 0
310 295 301 0
-311 -304 0
-311 310 0
311 304 -310 0
-312 -300 0
-312 -311 0
312 300 311 0
-313 300 0
-313 311 0
313 -300 -311 0
-314 -312 0
-314 -313 0
314 312 313 0
-315 1 0
-315 -16 0
315 -1 16 0
-316 -10 0
-316 -315 0
316 10 315 0
-317 1 0
-317 -304 0
317 -1 304 0
-318 -15 0
-318 -317 0
318 15 317 0
-319 15 0
-319 317 0
319 -15 -317 0
-320 -318 0
-320 -319 0
320 318 319 0
-321 10 0
-321 315 0
321 -10 -315 0
-322 320 0
-322 -321 0
322 -320 321 0
-323 -316 0
-323 -322 0
323 316 322 0
-324 -9 0
-324 -323 0
324 9 323 0
-325 -238 0
-325 -243 0
325 238 243 0
-326 -304 0
-326 325 0
326 304 -325 0
-327 -242 0
-327 -326 0
327 242 326 0
-328 242 0
-328 326 0
328 -242 -326 0
-329 -327 0
-329 -328 0
329 327 328 0
-330 9 0
-330 323 0
330 -9 -323 0
-331 329 0
-331 -330 0
331 -329 330 0
-332 -324 0
-332 -331 0
332 324 331 0
-333 -8 0
-333 -332 0
333 8 332 0
-334 -246 0
-334 -252 0
334 246 252 0
-335 -304 0
-335 334 0
335 304 -334 0
-336 -251 0
-336 -335 0
336 251 335 0
-337 251 0
-337 335 0
337 -251 -335 0
-338 -336 0
-338 -337 0
338 336 337 0
-339 8 0
-339 332 0
339 -8 -332 0
-340 338 0
-340 -339 0
340 -338 339 0
-341 -333 0
-341 -340 0
341 333 340 0
-342 -7 0
-342 -341 0
342 7 341 0
-343 -255 0
-343 -261 0
343 255 261 0
-344 -304 0
-344 343 0
344 304 -343 0
-345 -260 0
-345 -344 0
345 260 344 0
-346 260 0
-346 344 0
346 -260 -344 0
-347 -345 0
-347 -346 0
347 345 346 0
-348 7 0
-348 341 0
348 -7 -341 0
-349 347 0
-349 -348 0
349 -347 348 0
-350 -342 0
-350 -349 0
350 342 349 0
-351 -6 0
-351 -350 0
351 6 350 0
-352 -264 0
-352 -270 0
352 264 270 0
-353 -304 0
-353 352 0
353 304 -352 0
-354 -269 0
-354 -353 0
354 269 353 0
-355 269 0
-355 353 0
355 -269 -353 0
-356 -354 0
-356 -355 0
356 354 355 0
-357 6 0
-357 350 0
357 -6 -350 0
-358 356 0
-358 -357 0
358 -356 357 0
-359 -351 0
-359 -358 0
359 351 358 0
-360 -5 0
-360 -359 0
360 5 359 0
-361 5 0
-361 359 0
361 -5 -359 0
-362 309 0
-362 -361 0
362 -309 361 0
-363 -360 0
-363 -362 0
363 360 362 0
-364 -4 0
-364 -363 0
364 4 363 0
-365 -277 0
-365 -283 0
365 277 283 0
-366 -304 0
-366 365 0
366 304 -365 0
-367 -282 0
-367 -366 0
367 282 366 0
-368 282 0
-368 366 0
368 -282 -366 0
-369 -367 0
-369 -368 0
369 367 368 0
-370 4 0
-370 363 0
370 -4 -363 0
-371 369 0
-371 -370 0
371 -369 370 0
-372 -364 0
-372 -371 0
372 364 371 0
-373 -3 0
-373 -372 0
373 3 372 0
-374 -286 0
-374 -292 0
374 286 292 0
-375 -304 0
-375 374 0
375 304 -374 0
-376 -291 0
-376 -375 0
376 291 375 0
-377 291 0
-377 375 0
377 -291 -375 0
-378 -376 0
-378 -377 0
378 376 377 0
-379 3 0
-379 372 0
379 -3 -372 0
-380 378 0
-380 -379 0
380 -378 379 0
-381 -373 0
-381 -380 0
381 373 380 0
-382 -314 0
-382 381 0
382 314 -381 0
-383 -360 0
-383 -361 0
383 360 361 0
-384 -382 0
-384 383 0
384 382 -383 0
-385 -309 0
-385 -384 0
385 309 384 0
-386 309 0
-386 384 0
386 -309 -384 0
-387 -385 0
-387 -386 0
387 385 386 0
-388 -373 0
-388 -379 0
388 373 379 0
-389 -382 0
-389 388 0
389 382 -388 0
-390 -378 0
-390 -389 0
390 378 389 0
-391 378 0
-391 389 0
391 -378 -389 0
-392 -390 0
-392 -391 0
392 390 391 0
-393 1 0
-393 -17 0
393 -1 17 0
-394 -10 0
-394 -393 0
394 10 393 0
-395 1 0
-395 -382 0
395 -1 382 0
-396 -16 0
-396 -395 0
396 16 395 0
-397 16 0
-397 395 0
397 -16 -395 0
-398 -396 0
-398 -397 0
398 396 397 0
-399 10 0
-399 393 0
399 -10 -393 0
-400 398 0
-400 -399 0
400 -398 399 0
-401 -394 0
-401 -400 0
401 394 400 0
-402 -9 0
-402 -401 0
402 9 401 0
-403 -316 0
-403 -321 0
403 316 321 0
-404 -382 0
-404 403 0
404 382 -403 0
-405 -320 0
-405 -404 0
405 320 404 0
-406 320 0
-406 404 0
406 -320 -404 0
-407 -405 0
-407 -406 0
407 405 406 0
-408 9 0
-408 401 0
408 -9 -401 0
-409 407 0
-409 -408 0
409 -407 408 0
-410 -402 0
-410 -409 0
410 402 409 0
-411 -8 0
-411 -410 0
411 8 410 0
-412 -324 0
-412 -330 0
412 324 330 0
-413 -382 0
-413 412 0
413 382 -412 0
-414 -329 0
-414 -413 0
414 329 413 0
-415 329 0
-415 413 0
415 -329 -413 0
-416 -414 0
-416 -415 0
416 414 415 0
-417 8 0
-417 410 0
417 -8 -410 0
-418 416 0
-418 -417 0
418 -416 417 0
-419 -411 0
-419 -418 0
419 411 418 0
-420 -7 0
-420 -419 0
420 7 419 0
-421 -333 0
-421 -339 0
421 333 339 0
-422 -382 0
-422 421 0
422 382 -421 0
-423 -338 0
-423 -422 0
423 338 422 0
-424 338 0
-424 422 0
424 -338 -422 0
-425 -423 0
-425 -424 0
425 423 424 0
-426 7 0
-426 419 0
426 -7 -419 0
-427 425 0
-427 -426 0
427 -425 426 0
-428 -420 0
-428 -427 0
428 420 427 0
-429 -6 0
-429 -428 0
429 6 428 0
-430 -342 0
-430 -348 0
430 342 348 0
-431 -382 0
-431 430 0
431 382 -430 0
-432 -347 0
-432 -431 0
432 347 431 0
-433 347 0
-433 431 0
433 -347 -431 0
-434 -432 0
-434 -433 0
434 432 433 0
-435 6 0
-435 428 0
435 -6 -428 0
-436 434 0
-436 -435 0
436 -434 435 0
-437 -429 0
-437 -436 0
437 429 436 0
-438 -5 0
-438 -437 0
438 5 437 0
-439 -351 0
-439 -357 0
439 351 357 0
-440 -382 0
-440 439 0
440 382 -439 0
-441 -356 0
-441 -440 0
441 356 440 0
-442 356 0
-442 440 0
442 -356 -440 0
-443 -441 0
-443 -442 0
443 441 442 0
-444 5 0
-444 437 0
444 -5 -437 0
-445 443 0
-445 -444 0
445 -443 444 0
-446 -438 0
-446 -445 0
446 438 445 0
-447 -4 0
-447 -446 0
447 4 446 0
-448 4 0
-448 446 0
448 -4 -446 0
-449 387 0
-449 -448 0
449 -387 448 0
-450 -447 0
-450 -449 0
450 447 449 0
-451 -3 0
-451 -450 0
451 3 450 0
-452 -364 0
-452 -370 0
452 364 370 0
-453 -382 0
-453 452 0
453 382 -452 0
-454 -369 0
-454 -453 0
454 369 453 0
-455 369 0
-455 453 0
455 -369 -453 0
-456 -454 0
-456 -455 0
456 454 455 0
-457 3 0
-457 450 0
457 -3 -450 0
-458 456 0
-458 -457 0
458 -456 457 0
-459 -451 0
-459 -458 0
459 451 458 0
-460 -392 0
-460 459 0
460 392 -459 0
-461 -447 0
-461 -448 0
461 447 448 0
-462 -460 0
-462 461 0
462 460 -461 0
-463 -387 0
-463 -462 0
463 387 462 0
-464 387 0
-464 462 0
464 -387 -462 0
-465 -463 0
-465 -464 0
465 463 464 0
-466 -451 0
-466 -457 0
466 451 457 0
-467 -460 0
-467 466 0
467 460 -466 0
-468 -456 0
-468 -467 0
468 456 467 0
-469 456 0
-469 467 0
469 -456 -467 0
-470 -468 0
-470 -469 0
470 468 469 0
-471 1 0
-471 -18 0
471 -1 18 0
-472 -10 0
-472 -471 0
472 10 471 0
-473 1 0
-473 -460 0
473 -1 460 0
-474 -17 0
-474 -473 0
474 17 473 0
-475 17 0
-475 473 0
475 -17 -473 0
-476 -474 0
-476 -475 0
476 474 475 0
-477 10 0
-477 471 0
477 -10 -471 0
-478 476 0
-478 -477 0
478 -476 477 0
-479 -472 0
-479 -478 0
479 472 478 0
-480 -9 0
-480 -479 0
480 9 479 0
-481 -394 0
-481 -399 0
481 394 399 0
-482 -460 0
-482 481 0
482 460 -481 0
-483 -398 0
-483 -482 0
483 398 482 0
-484 398 0
-484 482 0
484 -398 -482 0
-485 -483 0
-485 -484 0
485 483 484 0
-486 9 0
-486 479 0
486 -9 -479 0
-487 485 0
-487 -486 0
487 -485 486 0
-488 -480 0
-488 -487 0
488 480 487 0
-489 -8 0
-489 -488 0
489 8 488 0
-490 -402 0
-490 -408 0
490 402 408 0
-491 -460 0
-491 490 0
491 460 -490 0
-492 -407 0
-492 -491 0
492 407 491 0
-493 407 0
-493 491 0
493 -407 -491 0
-494 -492 0
-494 -493 0
494 492 493 0
-495 8 0
-495 488 0
495 -8 -488 0
-496 494 0
-496 -495 0
496 -494 495 0
-497 -489 0
-497 -496 0
497 489 496 0
-498 -7 0
-498 -497 0
498 7 497 0
-499 -411 0
-499 -417 0
499 411 417 0
-500 -460 0
-500 499 0
500 460 -499 0
-501 -416 0
-501 -500 0
501 416 500 0
-502 416 0
-502 500 0
502 -416 -500 0
-503 -501 0
-503 -502 0
503 501 502 0
-504 7 0
-504 497 0
504 -7 -497 0
-505 503 0
-505 -504 0
505 -503 504 0
-506 -498 0
-506 -505 0
506 498 505 0
-507 -6 0
-507 -506 0
507 6 506 0
-508 -420 0
-508 -426 0
508 420 426 0
-509 -460 0
-509 508 0
509 460 -508 0
-510 -425 0
-510 -509 0
510 425 509 0
-511 425 0
-511 509 0
511 -425 -509 0
-512 -510 0
-512 -511 0
512 510 511 0
-513 6 0
-513 506 0
513 -6 -506 0
-514 512 0
-514 -513 0
514 -512 513 0
-515 -507 0
-515 -514 0
515 507 514 0
-516 -5 0
-516 -515 0
516 5 515 0
-517 -429 0
-517 -435 0
517 429 435 0
-518 -460 0
-518 517 0
518 460 -517 0
-519 -434 0
-519 -518 0
519 434 518 0
-520 434 0
-520 518 0
520 -434 -518 0
-521 -519 0
-521 -520 0
521 519 520 0
-522 5 0
-522 515 0
522 -5 -515 0
-523 521 0
-523 -522 0
523 -521 522 0
-524 -516 0
-524 -523 0
524 516 523 0
-525 -4 0
-525 -524 0
525 4 524 0
-526 -438 0
-526 -444 0
526 438 444 0
-527 -460 0
-527 526 0
527 460 -526 0
-528 -443 0
-528 -527 0
528 443 527 0
-529 443 0
-529 527 0
529 -443 -527 0
-530 -528 0
-530 -529 0
530 528 529 0
-531 4 0
-531 524 0
531 -4 -524 0
-532 530 0
-532 -531 0
532 -530 531 0
-533 -525 0
-533 -532 0
533 525 532 0
-534 -3 0
-534 -533 0
534 3 533 0
-535 3 0
-535 533 0
535 -3 -533 0
-536 465 0
-536 -535 0
536 -465 535 0
-537 -534 0
-537 -536 0
537 534 536 0
-538 -470 0
-538 537 0
538 470 -537 0
-539 -534 0
-539 -535 0
539 534 535 0
-540 -538 0
-540 539 0
540 538 -539 0
-541 -465 0
-541 -540 0
541 465 540 0
-542 465 0
-542 540 0
542 -465 -540 0
-543 -541 0
-543 -542 0
543 541 542 0
-544 1 0
-544 -2 0
544 -1 2 0
-545 -10 0
-545 -544 0
545 10 544 0
-546 1 0
-546 -538 0
546 -1 538 0
-547 -18 0
-547 -546 0
547 18 546 0
-548 18 0
-548 546 0
548 -18 -546 0
-549 -547 0
-549 -548 0
549 547 548 0
-550 10 0
-550 544 0
550 -10 -544 0
-551 549 0
-551 -550 0
551 -549 550 0
-552 -545 0
-552 -551 0
552 545 551 0
-553 -9 0
-553 -552 0
553 9 552 0
-554 -472 0
-554 -477 0
554 472 477 0
-555 -538 0
-555 554 0
555 538 -554 0
-556 -476 0
-556 -555 0
556 476 555 0
-557 476 0
-557 555 0
557 -476 -555 0
-558 -556 0
-558 -557 0
558 556 557 0
-559 9 0
-559 552 0
559 -9 -552 0
-560 558 0
-560 -559 0
560 -558 559 0
-561 -553 0
-561 -560 0
561 553 560 0
-562 -8 0
-562 -561 0
562 8 561 0
-563 -480 0
-563 -486 0
563 480 486 0
-564 -538 0
-564 563 0
564 538 -563 0
-565 -485 0
-565 -564 0
565 485 564 0
-566 485 0
-566 564 0
566 -485 -564 0
-567 -565 0
-567 -566 0
567 565 566 0
-568 8 0
-568 561 0
568 -8 -561 0
-569 567 0
-569 -568 0
569 -567 568 0
-570 -562 0
-570 -569 0
570 562 569 0
-571 -7 0
-571 -570 0
571 7 570 0
-572 -489 0
-572 -495 0
572 489 495 0
-573 -538 0
-573 572 0
573 538 -572 0
-574 -494 0
-574 -573 0
574 494 573 0
-575 494 0
-575 573 0
575 -494 -573 0
-576 -574 0
-576 -575 0
576 574 575 0
-577 7 0
-577 570 0
577 -7 -570 0
-578 576 0
-578 -577 0
578 -576 577 0
-579 -571 0
-579 -578 0
579 571 578 0
-580 -6 0
-580 -579 0
580 6 579 0
-581 -498 0
-581 -504 0
581 498 504 0
-582 -538 0
-582 581 0
582 538 -581 0
-583 -503 0
-583 -582 0
583 503 582 0
-584 503 0
-584 582 0
584 -503 -582 0
-585 -583 0
-585 -584 0
585 583 584 0
-586 6 0
-586 579 0
586 -6 -579 0
-587 585 0
-587 -586 0
587 -585 586 0
-588 -580 0
-588 -587 0
588 580 587 0
-589 -5 0
-589 -588 0
589 5 588 0
-590 -507 0
-590 -513 0
590 507 513 0
-591 -538 0
-591 590 0
591 538 -590 0
-592 -512 0
-592 -591 0
592 512 591 0
-593 512 0
-593 591 0
593 -512 -591 0
-594 -592 0
-594 -593 0
594 592 593 0
-595 5 0
-595 588 0
595 -5 -588 0
-596 594 0
-596 -595 0
596 -594 595 0
-597 -589 0
-597 -596 0
597 589 596 0
-598 -4 0
-598 -597 0
598 4 597 0
-599 -516 0
-599 -522 0
599 516 522 0
-600 -538 0
-600 599 0
600 538 -599 0
-601 -521 0
-601 -600 0
601 521 600 0
-602 521 0
-602 600 0
602 -521 -600 0
-603 -601 0
-603 -602 0
603 601 602 0
-604 4 0
-604 597 0
604 -4 -597 0
-605 603 0
-605 -604 0
605 -603 604 0
-606 -598 0
-606 -605 0
606 598 605 0
-607 -3 0
-607 -606 0
607 3 606 0
-608 -525 0
-608 -531 0
608 525 531 0
-609 -538 0
-609 608 0
609 538 -608 0
-610 -530 0
-610 -609 0
610 530 609 0
-611 530 0
-611 609 0
611 -530 -609 0
-612 -610 0
-612 -611 0
612 610 611 0
-613 3 0
-613 606 0
613 -3 -606 0
-614 612 0
-614 -613 0
614 -612 613 0
-615 -607 0
-615 -614 0
615 607 614 0
-616 -543 0
-616 615 0
616 543 -615 0
-617 1 0
-617 -616 0
617 -1 616 0
618 2 617 0
619 -2 -617 0
-620 -618 0
-620 -619 0
621 -1 620 0
-622 -545 0
-622 -550 0
622 545 550 0
-623 -616 0
-623 622 0
623 616 -622 0
624 549 623 0
625 -549 -623 0
-626 -624 0
-626 -625 0
-627 -10 0
-627 626 0
628 -621 627 0
629 -10 626 0
-630 -628 0
-630 -629 0
-631 -553 0
-631 -559 0
631 553 559 0
-632 -616 0
-632 631 0
632 616 -631 0
633 558 632 0
634 -558 -632 0
-635 -633 0
-635 -634 0
-636 -9 0
-636 635 0
637 630 636 0
638 -9 635 0
-639 -637 0
-639 -638 0
-640 -562 0
-640 -568 0
640 562 568 0
-641 -616 0
-641 640 0
641 616 -640 0
642 567 641 0
643 -567 -641 0
-644 -642 0
-644 -643 0
-645 -8 0
-645 644 0
646 639 645 0
647 -8 644 0
-648 -646 0
-648 -647 0
-649 -571 0
-649 -577 0
649 571 577 0
-650 -616 0
-650 649 0
650 616 -649 0
651 576 650 0
652 -576 -650 0
-653 -651 0
-653 -652 0
-654 -7 0
-654 653 0
655 648 654 0
656 -7 653 0
-657 -655 0
-657 -656 0
-658 -580 0
-658 -586 0
658 580 586 0
-659 -616 0
-659 658 0
659 616 -658 0
660 585 659 0
661 -585 -659 0
-662 -660 0
-662 -661 0
-663 -6 0
-663 662 0
664 657 663 0
665 -6 662 0
-666 -664 0
-666 -665 0
-667 -589 0
-667 -595 0
667 589 595 0
-668 -616 0
-668 667 0
668 616 -667 0
669 594 668 0
670 -594 -668 0
-671 -669 0
-671 -670 0
-672 -5 0
-672 671 0
673 666 672 0
674 -5 671 0
-675 -673 0
-675 -674 0
-676 -598 0
-676 -604 0
676 598 604 0
-677 -616 0
-677 676 0
677 616 -676 0
678 603 677 0
679 -603 -677 0
-680 -678 0
-680 -679 0
-681 -4 0
-681 680 0
682 675 681 0
683 -4 680 0
-684 -682 0
-684 -683 0
-685 -607 0
-685 -613 0
685 607 613 0
-686 -616 0
-686 685 0
686 616 -685 0
687 612 686 0
688 -612 -686 0
-689 -687 0
-689 -688 0
-690 -3 0
-690 689 0
691 684 690 0
692 -3 689 0
-693 -691 0
-693 -692 0
694 3 4 0
695 5 -694 0
696 6 -695 0
697 7 -696 0
698 8 -697 0
699 9 -698 0
700 10 -699 0
701 1 -700 0
-702 693 0
-702 -701 0
702 0
